000 001 000 000 000 000 000 -99 -99 -99 -99 -99 -99 000 000 -99 -99 -99 -99 -99 -99 -99 -99 000 000 -99 -99 -99 -99 -99 -99
000 000 000 000 000 000 000 -99 -99 -99 -99 -99 -99 000 000 000 -99 -99 -99 -99 -99 -99 -99 000 000 -99 -99 -99 -99 -99 -99
000 000 000 000 000 000 000 000 000 -99 -99 -99 -99 -99 000 000 -99 -99 -99 -99 -99 000 000 000 000 000 -99 000 -99 -99 -99
-99 000 000 000 000 000 000 000 000 000 -99 -99 -99 -99 -99 000 -99 -99 -99 000 000 -99 000 000 000 -99 -99 000 -99 -99 -99
000 000 000 000 000 000 000 000 000 000 -99 -99 -99 -99 -99 -99 -99 -99 -99 -99 000 -99 000 000 000 000 -99 -99 -99 -99 -99
000 000 000 000 000 000 000 000 000 000 000 -99 -99 -99 -99 000 000 -99 -99 -99 000 000 000 000 000 -99 -99 -99 -99 -99 -99
000 000 000 000 000 000 000 000 000 000 000 -99 -99 -99 000 000 000 -99 -99 -99 000 000 -99 000 000 -99 -99 -99 -99 -99 -99
000 000 000 000 000 000 000 000 000 000 -99 -99 -99 -99 -99 000 000 000 -99 -99 000 000 -99 000 000 -99 -99 -99 -99 -99 -99
000 000 000 000 000 000 -99 000 000 000 000 -99 -99 -99 -99 -99 000 000 -99 000 000 -99 -99 000 000 -99 000 -99 -99 -99 -99
000 000 000 000 000 000 000 000 000 000 000 000 -99 -99 -99 -99 000 000 000 000 000 000 -99 -99 000 000 000 000 -99 000 -99
000 000 000 000 000 000 000 000 000 000 000 000 000 -99 -99 000 000 000 000 000 000 000 -99 -99 -99 -99 000 000 -99 000 -99
000 000 000 000 000 000 000 000 000 000 000 000 000 000 -99 000 000 000 000 000 000 000 -99 -99 -99 -99 000 000 000 000 000
000 000 000 000 000 000 000 000 000 000 000 000 000 000 000 000 000 000 000 000 000 000 -99 -99 -99 -99 -99 000 000 -99 000
000 000 000 000 000 000 000 000 000 000 000 000 000 000 000 000 000 000 000 000 000 000 -99 000 000 -99 -99 000 000 -99 000
000 000 000 000 000 000 000 000 000 000 000 -99 000 000 000 000 000 000 000 000 000 000 -99 000 000 000 000 000 000 -99 -99
000 000 000 000 000 000 000 000 000 000 000 -99 000 000 000 000 000 000 000 000 000 000 000 000 000 000 000 000 000 000 -99
000 000 000 000 000 000 000 000 000 000 000 000 000 000 000 000 000 000 000 000 000 000 000 000 000 000 000 000 000 000 -99
000 000 000 000 000 000 000 000 000 000 000 000 000 000 000 000 000 000 000 000 000 000 000 000 000 000 000 000 000 000 000
000 000 000 000 000 000 000 000 000 000 000 000 000 000 000 000 000 000 000 000 000 000 000 000 000 000 -99 -99 000 000 000
000 000 000 000 000 000 000 000 000 000 000 000 000 000 000 000 000 000 000 000 000 000 000 -99 000 000 -99 -99 000 000 -99
000 000 000 000 000 000 000 000 000 000 000 000 000 000 000 000 000 000 000 000 000 000 000 -99 -99 -99 -99 -99 000 000 -99
000 000 000 000 000 000 000 000 000 000 000 000 000 000 000 000 000 000 000 000 000 000 000 -99 -99 -99 -99 -99 000 000 -99
000 000 000 000 000 000 000 000 000 000 000 000 000 000 000 000 000 000 000 000 000 000 001 000 -99 -99 -99 -99 -99 -99 -99
000 000 000 000 000 000 000 000 000 000 000 000 000 000 000 000 000 000 000 000 000 001 001 000 000 -99 -99 -99 -99 -99 -99
000 000 000 000 000 000 000 000 000 000 000 001 000 000 000 000 000 000 000 000 000 000 001 -99 000 -99 -99 -99 -99 000 000
000 000 000 000 000 000 000 000 000 000 000 000 001 000 000 000 000 000 000 000 000 000 001 -99 -99 -99 -99 -99 -99 000 000
000 000 000 000 000 000 000 000 000 000 000 000 000 000 000 001 001 000 000 000 000 000 000 -99 -99 -99 003 003 002 000 000
000 000 000 000 000 000 000 000 000 000 000 000 000 001 001 002 002 000 000 000 000 000 000 -99 -99 -99 005 004 001 000 000
000 000 000 000 000 000 001 000 000 000 000 000 001 001 001 001 001 000 000 000 000 000 -99 -99 -99 002 003 004 002 000 000
000 000 000 000 000 000 001 001 000 000 000 001 003 002 002 002 001 000 000 000 000 000 -99 -99 -99 002 003 004 003 001 001
000 000 000 000 000 000 001 000 000 000 000 001 004 002 001 001 001 001 000 000 000 000 -99 000 -99 001 003 004 003 002 001
000 000 000 000 000 000 000 000 000 000 000 001 003 002 001 003 003 002 000 000 000 000 000 000 000 002 003 004 005 002 001
000 000 000 000 000 000 000 000 000 000 001 001 003 002 002 004 005 004 001 000 000 000 000 000 000 002 004 006 006 002 000
000 000 000 000 000 000 000 000 000 001 000 001 005 002 003 007 005 003 001 000 000 000 000 000 000 001 003 006 004 002 000
000 000 000 000 000 000 000 000 000 001 001 002 005 002 005 002 004 002 000 000 000 000 000 000 001 002 005 006 003 002 000
000 000 000 000 000 000 000 000 001 002 001 003 004 003 005 005 006 001 000 000 000 000 000 000 001 002 006 006 006 002 000
000 000 000 000 000 000 000 000 000 000 001 003 003 004 005 003 011 000 000 000 000 001 001 001 002 002 006 006 007 003 001
000 000 000 000 000 000 000 000 001 001 002 003 003 005 009 009 013 000 000 000 000 002 002 001 002 003 006 008 007 003 002
000 000 000 000 000 000 000 000 001 001 002 002 007 008 012 015 008 003 000 000 000 003 003 002 002 003 005 005 004 003 003
000 000 000 000 000 000 000 000 001 001 003 003 009 013 014 025 022 007 000 000 000 001 004 003 004 003 003 003 004 003 003
000 000 000 000 000 000 000 001 001 002 003 007 007 013 020 024 062 013 003 000 000 001 006 007 006 004 002 003 004 004 004
000 000 000 000 000 000 000 000 000 001 002 006 008 012 021 033 055 020 006 000 000 000 005 005 006 002 004 003 003 004 004
000 000 -99 -99 000 000 000 000 000 000 002 005 005 010 026 040 056 078 031 005 000 001 003 003 002 001 003 003 004 005 006
000 -99 -99 -99 -99 000 000 000 000 001 002 003 003 006 024 036 061 126 031 004 001 000 000 002 002 002 004 004 005 007 010
-99 -99 -99 -99 -99 -99 000 000 000 001 000 000 001 002 009 028 092 107 044 007 000 000 000 001 002 004 003 005 008 010 026
-99 -99 -99 -99 -99 -99 -99 000 000 000 000 000 001 001 001 007 073 026 035 002 -99 000 000 001 001 002 002 005 008 019 038
-99 -99 -99 -99 -99 -99 -99 -99 -99 000 -99 000 001 000 000 006 013 002 004 001 -99 000 000 001 001 001 003 006 006 011 052
-99 -99 -99 -99 -99 -99 -99 -99 -99 -99 -99 000 000 000 000 001 001 000 000 -99 000 000 000 000 000 002 001 002 002 009 075
-99 -99 -99 -99 -99 -99 -99 -99 000 000 -99 000 000 000 000 000 000 000 -99 -99 -99 -99 000 000 000 001 000 001 003 005 025
-99 -99 -99 -99 -99 -99 -99 -99 000 000 -99 -99 -99 -99 -99 000 -99 000 -99 -99 -99 -99 -99 -99 -99 000 000 000 000 002 016
-99 -99 -99 -99 -99 -99 -99 000 -99 -99 -99 -99 -99 -99 -99 -99 -99 -99 -99 -99 -99 -99 -99 -99 -99 -99 000 000 000 000 003
-99 -99 -99 -99 -99 -99 -99 -99 -99 -99 -99 -99 -99 -99 -99 -99 -99 -99 -99 000 -99 -99 -99 -99 -99 -99 -99 -99 000 000 000
-99 -99 -99 -99 -99 -99 -99 -99 -99 -99 -99 -99 -99 -99 -99 -99 -99 000 000 000 -99 -99 -99 -99 -99 -99 -99 -99 000 000 000
-99 -99 -99 -99 -99 -99 -99 -99 -99 -99 -99 -99 -99 -99 -99 -99 -99 000 000 -99 -99 -99 -99 -99 -99 -99 -99 -99 -99 000 000
-99 -99 -99 -99 -99 -99 -99 -99 -99 -99 -99 -99 -99 -99 -99 -99 -99 -99 -99 -99 -99 -99 -99 -99 -99 -99 -99 -99 -99 000 000
